units real
atom_style full
boundary p p p
read_data poly.dat
pair_style lj/cut 9.000000
pair_coeff 1 1 0.066 3.5
pair_coeff 2 2 0.25 3.55
pair_coeff 3 3 0.066 2.5
pair_coeff 4 4 0.061 2.85
pair_coeff 5 5 0.03 2.5
pair_coeff 6 6 0.105 3.5
pair_coeff 7 7 0.14 2.9
pair_coeff 8 8 0.21 2.96
pair_coeff 9 9 0.07 3.55
pair_coeff 10 10 0.03 2.42
pair_coeff 11 11 0.3 3.4
pair_coeff 12 12 0.066 3.5
pair_coeff 13 13 0.03 2.5
pair_coeff 14 14 0.6 3.7

bond_style harmonic
bond_coeff 1 335.095279232 1.84
bond_coeff 2 335.095279232 1.82
bond_coeff 3 208.599241623 1.44
bond_coeff 4 208.599241623 1.36
bond_coeff 5 208.599241623 1.43
bond_coeff 6 137.608804137 1.38
bond_coeff 7 208.599241623 1.37
bond_coeff 8 335.095279232 1.83
bond_coeff 9 208.599241623 1.39
bond_coeff 10 208.599241623 1.42
bond_coeff 11 335.095279232 1.85
bond_coeff 12 335.095279232 1.81
bond_coeff 13 50.1197382228 1.08
bond_coeff 14 208.599241623 1.41
bond_coeff 15 208.599241623 1.38
bond_coeff 16 208.599241623 1.526
bond_coeff 17 50.1197382228 1.09
bond_coeff 18 155.153493414 1.44
bond_coeff 19 810.308392758 1.21
bond_coeff 20 208.599241623 1.45
bond_coeff 21 208.599241623 1.4
bond_coeff 22 208.599241623 1.46
bond_coeff 23 208.599241623 1.47
bond_coeff 24 208.599241623 1.48
bond_coeff 25 208.599241623 1.49
bond_coeff 26 208.599241623 1.51
bond_coeff 27 208.599241623 1.53
bond_coeff 28 50.1197382228 1.1
bond_coeff 29 155.153493414 1.21
bond_coeff 30 155.153493414 1.36
bond_coeff 31 208.599241623 1.5
bond_coeff 32 270.426407426 1.43
bond_coeff 33 270.426407426 1.43
bond_coeff 34 46.89987016 1.4
bond_coeff 35 46.89987016 1.39
bond_coeff 36 36.6867225787 1.08
bond_coeff 37 29.9975258623 1.83
bond_coeff 38 208.599241623 1.526
bond_coeff 39 50.1197382228 1.09
bond_coeff 40 703.744178289 2.16

angle_style harmonic
angle_coeff 1 60.0 111.439781137
angle_coeff 2 60.0 120.0
angle_coeff 3 60.0 88.7324589066
angle_coeff 4 60.0 112.307302119
angle_coeff 5 60.0 130.840453783
angle_coeff 6 60.0 116.819595824
angle_coeff 7 60.0 110.53351805
angle_coeff 8 60.0 114.385197756
angle_coeff 9 60.0 135.004736509
angle_coeff 10 60.0 122.164839399
angle_coeff 11 60.0 120.853621319
angle_coeff 12 60.0 116.98121059
angle_coeff 13 60.0 108.03461547
angle_coeff 14 60 130.813941987
angle_coeff 15 60 121.143196463
angle_coeff 16 60.0 92.1608194301
angle_coeff 17 60.0 108.544355404
angle_coeff 18 60.0 126.0
angle_coeff 19 60.0 111.463210591
angle_coeff 20 60 128.522641862
angle_coeff 21 60 120.007982412
angle_coeff 22 60.0 114.61585061
angle_coeff 23 60.0 123.814544482
angle_coeff 24 60.0 121.560241608
angle_coeff 25 60.0 113.399669491
angle_coeff 26 60.0 119.249586792
angle_coeff 27 60.0 111.4206996
angle_coeff 28 60.0 122.873580612
angle_coeff 29 60.0 89.0990044761
angle_coeff 30 60.0 118.068061033
angle_coeff 31 60.0 122.726575516
angle_coeff 32 60.0 126.065943712
angle_coeff 33 60.0 118.961884233
angle_coeff 34 60.0 112.53360513
angle_coeff 35 60.0 128.501412267
angle_coeff 36 60.0 118.112544491
angle_coeff 37 60.0 89.474316271
angle_coeff 38 60.0 110.839540607
angle_coeff 39 60.0 115.951147729
angle_coeff 40 60.0 120.473481987
angle_coeff 41 60.0 123.565350604
angle_coeff 42 37.5 110.7
angle_coeff 43 58.35 112.7
angle_coeff 44 33.0 107.8
angle_coeff 45 50.0 109.5
angle_coeff 46 35.0 109.5
angle_coeff 47 80.0 120.0
angle_coeff 48 60.0 109.5
angle_coeff 49 58.35 110.470357103
angle_coeff 50 37.5 114.019556685
angle_coeff 51 37.5 135.459420019
angle_coeff 52 58.35 120.721904468
angle_coeff 53 60.0 108.0
angle_coeff 54 60.0 108.010261231
angle_coeff 55 60.0 120.011741544
angle_coeff 56 60.0 120.121686609
angle_coeff 57 60.0 120.034644177
angle_coeff 58 60.0 107.977949416
angle_coeff 59 60.0 107.887181095
angle_coeff 60 60.0 107.82066052
angle_coeff 61 60.0 120.022718577
angle_coeff 62 60.0 118.428041989
angle_coeff 63 60.0 118.660549176
angle_coeff 64 60.0 121.389522631
angle_coeff 65 60.0 121.188451001
angle_coeff 66 60.0 118.579689529
angle_coeff 67 60.0 121.088445362
angle_coeff 68 60.0 119.417698495
angle_coeff 69 60.0 119.845611731
angle_coeff 70 60.0 120.125592494
angle_coeff 71 60.0 107.950245129
angle_coeff 72 60.0 118.436257153
angle_coeff 73 60.0 121.0
angle_coeff 74 60.0 108.571742944
angle_coeff 75 60.0 106.72402844
angle_coeff 76 60.0 107.31275143
angle_coeff 77 60.0 119.786500003
angle_coeff 78 60.0 107.899672869
angle_coeff 79 60.0 116.240533323
angle_coeff 80 60.0 119.578789666
angle_coeff 81 60.0 123.33688986
angle_coeff 82 60.0 121.171338325
angle_coeff 83 60.0 108.535167592
angle_coeff 84 60.0 118.561834432
angle_coeff 85 60.0 121.437510921
angle_coeff 86 60.0 121.20228336
angle_coeff 87 60.0 119.887580063
angle_coeff 88 60.0 108.406268724
angle_coeff 89 60.0 121.090848986
angle_coeff 90 60.0 119.531106483
angle_coeff 91 60.0 120.64137699
angle_coeff 92 60.0 108.889570907
angle_coeff 93 100 114
angle_coeff 94 100 65.4896200909
angle_coeff 95 100 117
angle_coeff 96 100 65
angle_coeff 97 60.0 113.0
angle_coeff 98 37.5 108.0
angle_coeff 99 60.0 115.0
angle_coeff 100 37.5 120.0
angle_coeff 101 60.0 120.554407984
angle_coeff 102 55 122.46
angle_coeff 103 55 126.7
angle_coeff 104 55 116.9
angle_coeff 105 55 134.54
angle_coeff 106 55 122.46
angle_coeff 107 55 126.7
angle_coeff 108 55 116.9
angle_coeff 109 55 134.54
angle_coeff 110 63.0 120.0
angle_coeff 111 75.0 120.0
angle_coeff 112 63.0 120.386124642
angle_coeff 113 33.0 109.5
angle_coeff 114 37.5 110.7
angle_coeff 115 33.0 107.8
angle_coeff 116 58.35 112.7

dihedral_style opls
dihedral_coeff 1 15 0 0 0
dihedral_coeff 2 -60 0 0 0
dihedral_coeff 3 -2 3 0 0
dihedral_coeff 4 60 0 0 0
dihedral_coeff 5 0.0 0.0 0.636 0
dihedral_coeff 6 1.74 -1.517 0.279 0
dihedral_coeff 7 1.711 -0.5 0.663 0
dihedral_coeff 8 0.65 -0.25 0.67 0
dihedral_coeff 9 -4 2 0 0
dihedral_coeff 10 -0.04 1.4745 -0.13 0
dihedral_coeff 11 0 4 0 0
dihedral_coeff 12 1.73 -1.517 0.279 0
dihedral_coeff 13 -1.711 0.5 -0.663 0
dihedral_coeff 14 0 0 0.336 0
dihedral_coeff 15 -0.04 1.474 -0.134 0
dihedral_coeff 16 -0.04 1.474 -0.134 0
dihedral_coeff 17 -7.5 0 0 0
dihedral_coeff 18 0.0 0.0 0.318 0

improper_style harmonic
improper_coeff 1 30 180
improper_coeff 2 10 180
improper_coeff 3 60 180
improper_coeff 4 33 180
improper_coeff 5 10 141.760155258
improper_coeff 6 10 142.065847587
improper_coeff 7 10 137.80331113
improper_coeff 8 10 137.526761543
improper_coeff 9 10 142.700544381
improper_coeff 10 10 141.685135038
improper_coeff 11 10 142.682287717
improper_coeff 12 10 137.753424433
improper_coeff 13 10 137.503211833
improper_coeff 14 10 141.698822095
improper_coeff 15 10 141.773423611
improper_coeff 16 10 143.209550498
improper_coeff 17 10 142.996109419
improper_coeff 18 10 141.736876652
improper_coeff 19 10 143.302069259
improper_coeff 20 10 139.015964673
improper_coeff 21 10 142.259756063
improper_coeff 22 10 143.240240343
improper_coeff 23 10 142.229901919
improper_coeff 24 10 142.392683212
improper_coeff 25 10 142.362919254
improper_coeff 26 10 142.650359156
improper_coeff 27 10 142.331094459
improper_coeff 28 10 143.096072832
improper_coeff 29 10 151.692207146
improper_coeff 30 10 150.849836733
improper_coeff 31 10 151.36649225
improper_coeff 32 10 151.288834102
improper_coeff 33 10 150.548417808
improper_coeff 34 10 146.91347608
improper_coeff 35 10 149.794009052
improper_coeff 36 10 150.947331015
improper_coeff 37 10 147.538661653
improper_coeff 38 10 147.614827846
improper_coeff 39 10 146.856562941
improper_coeff 40 10 146.503191635
improper_coeff 41 10 151.189984479
improper_coeff 42 10 147.187707012
improper_coeff 43 10 149.246063759
improper_coeff 44 10 142.87804495
improper_coeff 45 10 143.959293921
improper_coeff 46 10 142.521534754
improper_coeff 47 10 138.793234328
improper_coeff 48 10 146.593386171
improper_coeff 49 10 143.002831421
improper_coeff 50 10 143.370406925
improper_coeff 51 10 146.80996406
improper_coeff 52 10 142.578301608
improper_coeff 53 10 150.811245969
improper_coeff 54 10 161.96370988
improper_coeff 55 10 143.246860346
improper_coeff 56 10 137.464812702
improper_coeff 57 10 136.185774664
improper_coeff 58 10 142.930629103
improper_coeff 59 10 146.853248662
improper_coeff 60 10 142.385546587
improper_coeff 61 10 150.550229696
improper_coeff 62 10 148.015555526
improper_coeff 63 10 163.568654707
improper_coeff 64 10 143.044664584
improper_coeff 65 10 148.086476659
improper_coeff 66 10 145.001954985
improper_coeff 67 10 136.345504463
improper_coeff 68 10 138.343122985
improper_coeff 69 10 151.395437073
improper_coeff 70 10 147.719953731
improper_coeff 71 10 147.957847154
improper_coeff 72 10 143.042046739
improper_coeff 73 10 144.48204286
improper_coeff 74 10 143.919397975
improper_coeff 75 12 179.772718948
improper_coeff 76 12 176.957806191
improper_coeff 77 10 179.628212874
improper_coeff 78 10 179.825830988
improper_coeff 79 10 179.756125851
improper_coeff 80 10 179.60413983
improper_coeff 81 10 179.26352137
improper_coeff 82 33 180
improper_coeff 83 33 180
improper_coeff 84 5 180
special_bonds lj 0 0 0.5
